proyfinal/src/viki/013/experimentInOfficeAgust.take6.output/3c55ceb2-981b-4a4f-9231-41e8c50af141.als.dat
{'cnf.clauses': '118081',
 'cnf.totvars': '69608',
 'conflict literals': '20',
 'conflicts': '12',
 'decisions': '5976',
 'memused.mb': '17.58',
 'outcome': 'UNSAT',
 'propagations': '31476',
 'restarts': '1',
 'solver.msecs': 35,
 'task.msecs': 90}
