proyfinal/src/viki/013/experimentInOfficeAgust.take6.output/3c55ceb2-981b-4a4f-9231-41e8c50af141.als.out
Reading from standard input... Use '--help' for help.
============================[ Problem Statistics ]=============================
|                                                                             |
|  Number of variables:         69608                                         |
|  Number of clauses:          118081                                         |
|  Parse time:                   0.03 s                                       |
|                                                                             |
============================[ Search Statistics ]==============================
| Conflicts |          ORIGINAL         |          LEARNT          | Progress |
|           |    Vars  Clauses Literals |    Limit  Clauses Lit/Cl |          |
===============================================================================
===============================================================================
restarts              : 1
conflicts             : 12             (339 /sec)
decisions             : 5976           (0.00 % random) (168962 /sec)
propagations          : 31476          (889932 /sec)
conflict literals     : 20             (0.00 % deleted)
Memory used           : 17.58 MB
CPU time              : 0.035369 s

UNSATISFIABLE
